% File represents an instance of a Composite Structure problem to be solved by a CP framework
% Created on 2025-03-26 10:41:40.918
T = 56;
n = 25;
m = 40;
edges = [(2, 1),
(7, 6),
(11, 12),
(17, 16),
(22, 21),
(3, 2),
(7, 8),
(13, 12),
(18, 17),
(22, 23),
(3, 4),
(8, 9),
(13, 14),
(18, 19),
(24, 23),
(5, 4),
(10, 9),
(15, 14),
(20, 19),
(24, 25),
(6, 1),
(11, 6),
(11, 16),
(21, 16),
(7, 2),
(7, 12),
(17, 12),
(22, 17),
(3, 8),
(13, 8),
(18, 13),
(18, 23),
(4, 9),
(14, 9),
(19, 14),
(24, 19),
(5, 10),
(15, 10),
(20, 15),
(20, 25)];
counts = [|12, 4, 12, 10,
|12, 4, 12, 14,
|12, 6, 12, 16,
|12, 2, 12, 16,
|14, 4, 14, 16,
|12, 6, 12, 14,
|12, 10, 12, 14,
|12, 6, 12, 14,
|12, 2, 12, 14,
|14, 4, 14, 14,
|12, 12, 12, 14,
|12, 10, 12, 12,
|12, 10, 12, 16,
|12, 8, 12, 14,
|14, 10, 14, 14,
|12, 12, 12, 10,
|12, 12, 12, 12,
|12, 12, 12, 16,
|12, 10, 12, 16,
|14, 12, 14, 16,
|12, 14, 12, 10,
|12, 14, 12, 16,
|12, 12, 12, 14,
|14, 12, 14, 16,
|12, 12, 12, 14|];
